The data in ".dzn" format would look like this:

```
inputone = array2d(1..3, 1..3, [0.1, 0.1, 0.2, 0.5, 0.1, 0.1, 0.5, 0.2, 0.2]);
manpowerone = array1d(1..3, [0.6, 0.3, 0.2]);
inputtwo = array2d(1..3, 1..3, [0.0, 0.1, 0.2, 0.7, 0.1, 0.1, 0.9, 0.2, 0.2]);
manpowertwo = array1d(1..3, [0.4, 0.2, 0.1]);
stock = array1d(1..3, [150, 80, 100]);
capacity = array1d(1..3, [300, 350, 280]);
manpower_limit = 470000000.0;
```